c generated by sgen
p cnf 45 100
-2 -3 -4 0
-1 -3 -4 0
-1 -2 -4 0
-1 -2 -3 0
-6 -7 -8 0
-5 -7 -8 0
-5 -6 -8 0
-5 -6 -7 0
-10 -11 -12 0
-9 -11 -12 0
-9 -10 -12 0
-9 -10 -11 0
-14 -15 -16 0
-13 -15 -16 0
-13 -14 -16 0
-13 -14 -15 0
-18 -19 -20 0
-17 -19 -20 0
-17 -18 -20 0
-17 -18 -19 0
-22 -23 -24 0
-21 -23 -24 0
-21 -22 -24 0
-21 -22 -23 0
-26 -27 -28 0
-25 -27 -28 0
-25 -26 -28 0
-25 -26 -27 0
-30 -31 -32 0
-29 -31 -32 0
-29 -30 -32 0
-29 -30 -31 0
-34 -35 -36 0
-33 -35 -36 0
-33 -34 -36 0
-33 -34 -35 0
-38 -39 -40 0
-37 -39 -40 0
-37 -38 -40 0
-37 -38 -39 0
-41 -42 -43 0
-41 -42 -44 0
-41 -42 -45 0
-41 -43 -44 0
-41 -43 -45 0
-41 -44 -45 0
-42 -43 -44 0
-42 -43 -45 0
-42 -44 -45 0
-43 -44 -45 0
28 45 12 0
31 45 12 0
31 28 12 0
31 28 45 0
19 14 6 0
11 14 6 0
11 19 6 0
11 19 14 0
36 40 7 0
44 40 7 0
44 36 7 0
44 36 40 0
9 20 24 0
37 20 24 0
37 9 24 0
37 9 20 0
10 3 22 0
33 3 22 0
33 10 22 0
33 10 3 0
23 8 43 0
32 8 43 0
32 23 43 0
32 23 8 0
2 5 38 0
26 5 38 0
26 2 38 0
26 2 5 0
27 41 21 0
16 41 21 0
16 27 21 0
16 27 41 0
1 30 15 0
39 30 15 0
39 1 15 0
39 1 30 0
4 35 42 0
17 35 42 0
17 4 42 0
17 4 35 0
25 34 13 0
25 34 18 0
25 34 29 0
25 13 18 0
25 13 29 0
25 18 29 0
34 13 18 0
34 13 29 0
34 18 29 0
13 18 29 0
